language Essence 1.3
$ This is instance 0 from Regin & Puget
$ It is *not* included in the data.txt file.
letting n_cars be 100
letting n_classes be 18
letting n_options be 5
letting maxcars be function (1 --> 1, 2 --> 2, 3 --> 1, 4 --> 2, 5 --> 1)
letting blksize be function (1 --> 2, 2 --> 3, 3 --> 3, 4 --> 5, 5 --> 5)
letting quantity be function (1 --> 5, 2 --> 3, 3 --> 7, 4 --> 1, 5 --> 10, 6 --> 2, 7 --> 11, 8 --> 5, 9 --> 4, 10 --> 6, 11 --> 12, 12 --> 1, 13 --> 1, 14 --> 5, 15 --> 9, 16 --> 5, 17 --> 12, 18 --> 1)
letting usage be relation ((1,1),(1,2),(1,5),(2,1),(2,2),(2,4),(3,1),(3,2),(3,3),(4,2),(4,3),(4,4),(5,1),(5,2),(6,1),(6,5),(7,1),(7,4),(8,1),(8,3),(9,2),(9,5),(10,2),(10,4),(11,2),(11,3),(12,3),(12,5),(13,3),(13,4),(14,1),(15,2),(16,5),(17,4),(18,3))

